p tw 656 3424
1 33
2 34
3 35
4 36
5 37
6 38
7 39
8 40
9 41
10 42
11 43
12 44
13 45
14 46
15 47
16 48
17 49
18 50
19 51
20 52
21 53
22 54
23 55
24 56
25 57
26 58
27 59
28 60
29 61
30 62
31 63
32 64
33 91
33 96
33 140
33 171
33 172
33 173
34 108
34 117
34 130
34 146
34 150
34 153
35 127
35 139
35 151
35 164
35 167
35 170
36 71
36 98
36 103
36 104
36 105
36 106
37 87
37 93
37 94
37 95
37 96
37 97
38 66
38 82
38 83
38 84
38 85
38 86
39 65
39 66
39 67
39 68
39 69
39 70
40 89
40 104
40 129
40 132
40 133
40 134
41 65
41 77
41 78
41 79
41 80
41 81
42 113
42 132
42 138
42 143
42 154
42 156
43 111
43 115
43 116
43 117
43 118
43 119
44 85
44 95
44 161
44 167
44 168
44 169
45 74
45 147
45 157
45 160
45 161
45 162
46 84
46 90
46 142
46 143
46 144
46 145
47 105
47 144
47 158
47 172
47 174
47 176
48 69
48 118
48 121
48 136
48 163
48 166
49 78
49 88
49 107
49 108
49 109
49 110
50 101
50 112
50 116
50 150
50 151
50 152
51 87
51 88
51 89
51 90
51 91
51 92
52 77
52 98
52 99
52 100
52 101
52 102
53 79
53 124
53 125
53 126
53 127
53 128
54 67
54 94
54 103
54 129
54 130
54 131
55 122
55 133
55 168
55 171
55 174
55 175
56 75
56 148
56 160
56 163
56 164
56 165
57 100
57 115
57 124
57 135
57 136
57 137
58 83
58 125
58 138
58 139
58 140
58 141
59 107
59 126
59 146
59 147
59 148
59 149
60 73
60 80
60 120
60 157
60 158
60 159
61 68
61 109
61 135
61 142
61 154
61 155
62 72
62 93
62 120
62 121
62 122
62 123
63 71
63 72
63 73
63 74
63 75
63 76
64 82
64 99
64 111
64 112
64 113
64 114
65 66
65 67
65 68
65 69
65 70
65 77
65 78
65 79
65 80
65 81
66 67
66 68
66 69
66 70
66 82
66 83
66 84
66 85
66 86
67 68
67 69
67 70
67 94
67 103
67 129
67 130
67 131
68 69
68 70
68 109
68 135
68 142
68 154
68 155
69 70
69 118
69 121
69 136
69 163
69 166
70 177
70 178
70 179
70 180
70 181
70 182
71 72
71 73
71 74
71 75
71 76
71 98
71 103
71 104
71 105
71 106
72 73
72 74
72 75
72 76
72 93
72 120
72 121
72 122
72 123
73 74
73 75
73 76
73 80
73 120
73 157
73 158
73 159
74 75
74 76
74 147
74 157
74 160
74 161
74 162
75 76
75 148
75 160
75 163
75 164
75 165
76 183
76 184
76 185
76 186
76 187
76 188
77 78
77 79
77 80
77 81
77 98
77 99
77 100
77 101
77 102
78 79
78 80
78 81
78 88
78 107
78 108
78 109
78 110
79 80
79 81
79 124
79 125
79 126
79 127
79 128
80 81
80 120
80 157
80 158
80 159
81 177
81 189
81 190
81 191
81 192
81 193
82 83
82 84
82 85
82 86
82 99
82 111
82 112
82 113
82 114
83 84
83 85
83 86
83 125
83 138
83 139
83 140
83 141
84 85
84 86
84 90
84 142
84 143
84 144
84 145
85 86
85 95
85 161
85 167
85 168
85 169
86 178
86 194
86 195
86 196
86 197
86 198
87 88
87 89
87 90
87 91
87 92
87 93
87 94
87 95
87 96
87 97
88 89
88 90
88 91
88 92
88 107
88 108
88 109
88 110
89 90
89 91
89 92
89 104
89 129
89 132
89 133
89 134
90 91
90 92
90 142
90 143
90 144
90 145
91 92
91 96
91 140
91 171
91 172
91 173
92 199
92 200
92 201
92 202
92 203
92 204
93 94
93 95
93 96
93 97
93 120
93 121
93 122
93 123
94 95
94 96
94 97
94 103
94 129
94 130
94 131
95 96
95 97
95 161
95 167
95 168
95 169
96 97
96 140
96 171
96 172
96 173
97 199
97 205
97 206
97 207
97 208
97 209
98 99
98 100
98 101
98 102
98 103
98 104
98 105
98 106
99 100
99 101
99 102
99 111
99 112
99 113
99 114
100 101
100 102
100 115
100 124
100 135
100 136
100 137
101 102
101 112
101 116
101 150
101 151
101 152
102 189
102 210
102 211
102 212
102 213
102 214
103 104
103 105
103 106
103 129
103 130
103 131
104 105
104 106
104 129
104 132
104 133
104 134
105 106
105 144
105 158
105 172
105 174
105 176
106 183
106 210
106 215
106 216
106 217
106 218
107 108
107 109
107 110
107 126
107 146
107 147
107 148
107 149
108 109
108 110
108 117
108 130
108 146
108 150
108 153
109 110
109 135
109 142
109 154
109 155
110 190
110 200
110 219
110 220
110 221
110 222
111 112
111 113
111 114
111 115
111 116
111 117
111 118
111 119
112 113
112 114
112 116
112 150
112 151
112 152
113 114
113 132
113 138
113 143
113 154
113 156
114 194
114 211
114 223
114 224
114 225
114 226
115 116
115 117
115 118
115 119
115 124
115 135
115 136
115 137
116 117
116 118
116 119
116 150
116 151
116 152
117 118
117 119
117 130
117 146
117 150
117 153
118 119
118 121
118 136
118 163
118 166
119 223
119 227
119 228
119 229
119 230
119 231
120 121
120 122
120 123
120 157
120 158
120 159
121 122
121 123
121 136
121 163
121 166
122 123
122 133
122 168
122 171
122 174
122 175
123 184
123 205
123 232
123 233
123 234
123 235
124 125
124 126
124 127
124 128
124 135
124 136
124 137
125 126
125 127
125 128
125 138
125 139
125 140
125 141
126 127
126 128
126 146
126 147
126 148
126 149
127 128
127 139
127 151
127 164
127 167
127 170
128 191
128 236
128 237
128 238
128 239
128 240
129 130
129 131
129 132
129 133
129 134
130 131
130 146
130 150
130 153
131 179
131 206
131 215
131 241
131 242
131 243
132 133
132 134
132 138
132 143
132 154
132 156
133 134
133 168
133 171
133 174
133 175
134 201
134 216
134 241
134 244
134 245
134 246
135 136
135 137
135 142
135 154
135 155
136 137
136 163
136 166
137 212
137 227
137 236
137 247
137 248
137 249
138 139
138 140
138 141
138 143
138 154
138 156
139 140
139 141
139 151
139 164
139 167
139 170
140 141
140 171
140 172
140 173
141 195
141 237
141 250
141 251
141 252
141 253
142 143
142 144
142 145
142 154
142 155
143 144
143 145
143 154
143 156
144 145
144 158
144 172
144 174
144 176
145 196
145 202
145 254
145 255
145 256
145 257
146 147
146 148
146 149
146 150
146 153
147 148
147 149
147 157
147 160
147 161
147 162
148 149
148 160
148 163
148 164
148 165
149 219
149 238
149 258
149 259
149 260
149 261
150 151
150 152
150 153
151 152
151 164
151 167
151 170
152 213
152 224
152 228
152 262
152 263
152 264
153 220
153 229
153 242
153 258
153 262
153 265
154 155
154 156
155 180
155 221
155 247
155 254
155 266
155 267
156 225
156 244
156 250
156 255
156 266
156 268
157 158
157 159
157 160
157 161
157 162
158 159
158 172
158 174
158 176
159 185
159 192
159 232
159 269
159 270
159 271
160 161
160 162
160 163
160 164
160 165
161 162
161 167
161 168
161 169
162 186
162 259
162 269
162 272
162 273
162 274
163 164
163 165
163 166
164 165
164 167
164 170
165 187
165 260
165 272
165 275
165 276
165 277
166 181
166 230
166 233
166 248
166 275
166 278
167 168
167 169
167 170
168 169
168 171
168 174
168 175
169 197
169 207
169 273
169 279
169 280
169 281
170 239
170 251
170 263
170 276
170 279
170 282
171 172
171 173
171 174
171 175
172 173
172 174
172 176
173 203
173 208
173 252
173 283
173 284
173 285
174 175
174 176
175 234
175 245
175 280
175 283
175 286
175 287
176 217
176 256
176 270
176 284
176 286
176 288
177 178
177 179
177 180
177 181
177 182
177 189
177 190
177 191
177 192
177 193
178 179
178 180
178 181
178 182
178 194
178 195
178 196
178 197
178 198
179 180
179 181
179 182
179 206
179 215
179 241
179 242
179 243
180 181
180 182
180 221
180 247
180 254
180 266
180 267
181 182
181 230
181 233
181 248
181 275
181 278
182 289
182 290
182 291
182 292
182 293
182 294
183 184
183 185
183 186
183 187
183 188
183 210
183 215
183 216
183 217
183 218
184 185
184 186
184 187
184 188
184 205
184 232
184 233
184 234
184 235
185 186
185 187
185 188
185 192
185 232
185 269
185 270
185 271
186 187
186 188
186 259
186 269
186 272
186 273
186 274
187 188
187 260
187 272
187 275
187 276
187 277
188 295
188 296
188 297
188 298
188 299
188 300
189 190
189 191
189 192
189 193
189 210
189 211
189 212
189 213
189 214
190 191
190 192
190 193
190 200
190 219
190 220
190 221
190 222
191 192
191 193
191 236
191 237
191 238
191 239
191 240
192 193
192 232
192 269
192 270
192 271
193 289
193 301
193 302
193 303
193 304
193 305
194 195
194 196
194 197
194 198
194 211
194 223
194 224
194 225
194 226
195 196
195 197
195 198
195 237
195 250
195 251
195 252
195 253
196 197
196 198
196 202
196 254
196 255
196 256
196 257
197 198
197 207
197 273
197 279
197 280
197 281
198 290
198 306
198 307
198 308
198 309
198 310
199 200
199 201
199 202
199 203
199 204
199 205
199 206
199 207
199 208
199 209
200 201
200 202
200 203
200 204
200 219
200 220
200 221
200 222
201 202
201 203
201 204
201 216
201 241
201 244
201 245
201 246
202 203
202 204
202 254
202 255
202 256
202 257
203 204
203 208
203 252
203 283
203 284
203 285
204 311
204 312
204 313
204 314
204 315
204 316
205 206
205 207
205 208
205 209
205 232
205 233
205 234
205 235
206 207
206 208
206 209
206 215
206 241
206 242
206 243
207 208
207 209
207 273
207 279
207 280
207 281
208 209
208 252
208 283
208 284
208 285
209 311
209 317
209 318
209 319
209 320
209 321
210 211
210 212
210 213
210 214
210 215
210 216
210 217
210 218
211 212
211 213
211 214
211 223
211 224
211 225
211 226
212 213
212 214
212 227
212 236
212 247
212 248
212 249
213 214
213 224
213 228
213 262
213 263
213 264
214 301
214 322
214 323
214 324
214 325
214 326
215 216
215 217
215 218
215 241
215 242
215 243
216 217
216 218
216 241
216 244
216 245
216 246
217 218
217 256
217 270
217 284
217 286
217 288
218 295
218 322
218 327
218 328
218 329
218 330
219 220
219 221
219 222
219 238
219 258
219 259
219 260
219 261
220 221
220 222
220 229
220 242
220 258
220 262
220 265
221 222
221 247
221 254
221 266
221 267
222 302
222 312
222 331
222 332
222 333
222 334
223 224
223 225
223 226
223 227
223 228
223 229
223 230
223 231
224 225
224 226
224 228
224 262
224 263
224 264
225 226
225 244
225 250
225 255
225 266
225 268
226 306
226 323
226 335
226 336
226 337
226 338
227 228
227 229
227 230
227 231
227 236
227 247
227 248
227 249
228 229
228 230
228 231
228 262
228 263
228 264
229 230
229 231
229 242
229 258
229 262
229 265
230 231
230 233
230 248
230 275
230 278
231 335
231 339
231 340
231 341
231 342
231 343
232 233
232 234
232 235
232 269
232 270
232 271
233 234
233 235
233 248
233 275
233 278
234 235
234 245
234 280
234 283
234 286
234 287
235 296
235 317
235 344
235 345
235 346
235 347
236 237
236 238
236 239
236 240
236 247
236 248
236 249
237 238
237 239
237 240
237 250
237 251
237 252
237 253
238 239
238 240
238 258
238 259
238 260
238 261
239 240
239 251
239 263
239 276
239 279
239 282
240 303
240 348
240 349
240 350
240 351
240 352
241 242
241 243
241 244
241 245
241 246
242 243
242 258
242 262
242 265
243 291
243 318
243 327
243 353
243 354
243 355
244 245
244 246
244 250
244 255
244 266
244 268
245 246
245 280
245 283
245 286
245 287
246 313
246 328
246 353
246 356
246 357
246 358
247 248
247 249
247 254
247 266
247 267
248 249
248 275
248 278
249 324
249 339
249 348
249 359
249 360
249 361
250 251
250 252
250 253
250 255
250 266
250 268
251 252
251 253
251 263
251 276
251 279
251 282
252 253
252 283
252 284
252 285
253 307
253 349
253 362
253 363
253 364
253 365
254 255
254 256
254 257
254 266
254 267
255 256
255 257
255 266
255 268
256 257
256 270
256 284
256 286
256 288
257 308
257 314
257 366
257 367
257 368
257 369
258 259
258 260
258 261
258 262
258 265
259 260
259 261
259 269
259 272
259 273
259 274
260 261
260 272
260 275
260 276
260 277
261 331
261 350
261 370
261 371
261 372
261 373
262 263
262 264
262 265
263 264
263 276
263 279
263 282
264 325
264 336
264 340
264 374
264 375
264 376
265 332
265 341
265 354
265 370
265 374
265 377
266 267
266 268
267 292
267 333
267 359
267 366
267 378
267 379
268 337
268 356
268 362
268 367
268 378
268 380
269 270
269 271
269 272
269 273
269 274
270 271
270 284
270 286
270 288
271 297
271 304
271 344
271 381
271 382
271 383
272 273
272 274
272 275
272 276
272 277
273 274
273 279
273 280
273 281
274 298
274 371
274 381
274 384
274 385
274 386
275 276
275 277
275 278
276 277
276 279
276 282
277 299
277 372
277 384
277 387
277 388
277 389
278 293
278 342
278 345
278 360
278 387
278 390
279 280
279 281
279 282
280 281
280 283
280 286
280 287
281 309
281 319
281 385
281 391
281 392
281 393
282 351
282 363
282 375
282 388
282 391
282 394
283 284
283 285
283 286
283 287
284 285
284 286
284 288
285 315
285 320
285 364
285 395
285 396
285 397
286 287
286 288
287 346
287 357
287 392
287 395
287 398
287 399
288 329
288 368
288 382
288 396
288 398
288 400
289 290
289 291
289 292
289 293
289 294
289 301
289 302
289 303
289 304
289 305
290 291
290 292
290 293
290 294
290 306
290 307
290 308
290 309
290 310
291 292
291 293
291 294
291 318
291 327
291 353
291 354
291 355
292 293
292 294
292 333
292 359
292 366
292 378
292 379
293 294
293 342
293 345
293 360
293 387
293 390
294 401
294 402
294 403
294 404
294 405
294 406
295 296
295 297
295 298
295 299
295 300
295 322
295 327
295 328
295 329
295 330
296 297
296 298
296 299
296 300
296 317
296 344
296 345
296 346
296 347
297 298
297 299
297 300
297 304
297 344
297 381
297 382
297 383
298 299
298 300
298 371
298 381
298 384
298 385
298 386
299 300
299 372
299 384
299 387
299 388
299 389
300 407
300 408
300 409
300 410
300 411
300 412
301 302
301 303
301 304
301 305
301 322
301 323
301 324
301 325
301 326
302 303
302 304
302 305
302 312
302 331
302 332
302 333
302 334
303 304
303 305
303 348
303 349
303 350
303 351
303 352
304 305
304 344
304 381
304 382
304 383
305 401
305 413
305 414
305 415
305 416
305 417
306 307
306 308
306 309
306 310
306 323
306 335
306 336
306 337
306 338
307 308
307 309
307 310
307 349
307 362
307 363
307 364
307 365
308 309
308 310
308 314
308 366
308 367
308 368
308 369
309 310
309 319
309 385
309 391
309 392
309 393
310 402
310 418
310 419
310 420
310 421
310 422
311 312
311 313
311 314
311 315
311 316
311 317
311 318
311 319
311 320
311 321
312 313
312 314
312 315
312 316
312 331
312 332
312 333
312 334
313 314
313 315
313 316
313 328
313 353
313 356
313 357
313 358
314 315
314 316
314 366
314 367
314 368
314 369
315 316
315 320
315 364
315 395
315 396
315 397
316 423
316 424
316 425
316 426
316 427
316 428
317 318
317 319
317 320
317 321
317 344
317 345
317 346
317 347
318 319
318 320
318 321
318 327
318 353
318 354
318 355
319 320
319 321
319 385
319 391
319 392
319 393
320 321
320 364
320 395
320 396
320 397
321 423
321 429
321 430
321 431
321 432
321 433
322 323
322 324
322 325
322 326
322 327
322 328
322 329
322 330
323 324
323 325
323 326
323 335
323 336
323 337
323 338
324 325
324 326
324 339
324 348
324 359
324 360
324 361
325 326
325 336
325 340
325 374
325 375
325 376
326 413
326 434
326 435
326 436
326 437
326 438
327 328
327 329
327 330
327 353
327 354
327 355
328 329
328 330
328 353
328 356
328 357
328 358
329 330
329 368
329 382
329 396
329 398
329 400
330 407
330 434
330 439
330 440
330 441
330 442
331 332
331 333
331 334
331 350
331 370
331 371
331 372
331 373
332 333
332 334
332 341
332 354
332 370
332 374
332 377
333 334
333 359
333 366
333 378
333 379
334 414
334 424
334 443
334 444
334 445
334 446
335 336
335 337
335 338
335 339
335 340
335 341
335 342
335 343
336 337
336 338
336 340
336 374
336 375
336 376
337 338
337 356
337 362
337 367
337 378
337 380
338 418
338 435
338 447
338 448
338 449
338 450
339 340
339 341
339 342
339 343
339 348
339 359
339 360
339 361
340 341
340 342
340 343
340 374
340 375
340 376
341 342
341 343
341 354
341 370
341 374
341 377
342 343
342 345
342 360
342 387
342 390
343 447
343 451
343 452
343 453
343 454
343 455
344 345
344 346
344 347
344 381
344 382
344 383
345 346
345 347
345 360
345 387
345 390
346 347
346 357
346 392
346 395
346 398
346 399
347 408
347 429
347 456
347 457
347 458
347 459
348 349
348 350
348 351
348 352
348 359
348 360
348 361
349 350
349 351
349 352
349 362
349 363
349 364
349 365
350 351
350 352
350 370
350 371
350 372
350 373
351 352
351 363
351 375
351 388
351 391
351 394
352 415
352 460
352 461
352 462
352 463
352 464
353 354
353 355
353 356
353 357
353 358
354 355
354 370
354 374
354 377
355 403
355 430
355 439
355 465
355 466
355 467
356 357
356 358
356 362
356 367
356 378
356 380
357 358
357 392
357 395
357 398
357 399
358 425
358 440
358 465
358 468
358 469
358 470
359 360
359 361
359 366
359 378
359 379
360 361
360 387
360 390
361 436
361 451
361 460
361 471
361 472
361 473
362 363
362 364
362 365
362 367
362 378
362 380
363 364
363 365
363 375
363 388
363 391
363 394
364 365
364 395
364 396
364 397
365 419
365 461
365 474
365 475
365 476
365 477
366 367
366 368
366 369
366 378
366 379
367 368
367 369
367 378
367 380
368 369
368 382
368 396
368 398
368 400
369 420
369 426
369 478
369 479
369 480
369 481
370 371
370 372
370 373
370 374
370 377
371 372
371 373
371 381
371 384
371 385
371 386
372 373
372 384
372 387
372 388
372 389
373 443
373 462
373 482
373 483
373 484
373 485
374 375
374 376
374 377
375 376
375 388
375 391
375 394
376 437
376 448
376 452
376 486
376 487
376 488
377 444
377 453
377 466
377 482
377 486
377 489
378 379
378 380
379 404
379 445
379 471
379 478
379 490
379 491
380 449
380 468
380 474
380 479
380 490
380 492
381 382
381 383
381 384
381 385
381 386
382 383
382 396
382 398
382 400
383 409
383 416
383 456
383 493
383 494
383 495
384 385
384 386
384 387
384 388
384 389
385 386
385 391
385 392
385 393
386 410
386 483
386 493
386 496
386 497
386 498
387 388
387 389
387 390
388 389
388 391
388 394
389 411
389 484
389 496
389 499
389 500
389 501
390 405
390 454
390 457
390 472
390 499
390 502
391 392
391 393
391 394
392 393
392 395
392 398
392 399
393 421
393 431
393 497
393 503
393 504
393 505
394 463
394 475
394 487
394 500
394 503
394 506
395 396
395 397
395 398
395 399
396 397
396 398
396 400
397 427
397 432
397 476
397 507
397 508
397 509
398 399
398 400
399 458
399 469
399 504
399 507
399 510
399 511
400 441
400 480
400 494
400 508
400 510
400 512
401 402
401 403
401 404
401 405
401 406
401 413
401 414
401 415
401 416
401 417
402 403
402 404
402 405
402 406
402 418
402 419
402 420
402 421
402 422
403 404
403 405
403 406
403 430
403 439
403 465
403 466
403 467
404 405
404 406
404 445
404 471
404 478
404 490
404 491
405 406
405 454
405 457
405 472
405 499
405 502
406 513
406 514
406 515
406 516
406 517
406 518
407 408
407 409
407 410
407 411
407 412
407 434
407 439
407 440
407 441
407 442
408 409
408 410
408 411
408 412
408 429
408 456
408 457
408 458
408 459
409 410
409 411
409 412
409 416
409 456
409 493
409 494
409 495
410 411
410 412
410 483
410 493
410 496
410 497
410 498
411 412
411 484
411 496
411 499
411 500
411 501
412 519
412 520
412 521
412 522
412 523
412 524
413 414
413 415
413 416
413 417
413 434
413 435
413 436
413 437
413 438
414 415
414 416
414 417
414 424
414 443
414 444
414 445
414 446
415 416
415 417
415 460
415 461
415 462
415 463
415 464
416 417
416 456
416 493
416 494
416 495
417 513
417 525
417 526
417 527
417 528
417 529
418 419
418 420
418 421
418 422
418 435
418 447
418 448
418 449
418 450
419 420
419 421
419 422
419 461
419 474
419 475
419 476
419 477
420 421
420 422
420 426
420 478
420 479
420 480
420 481
421 422
421 431
421 497
421 503
421 504
421 505
422 514
422 530
422 531
422 532
422 533
422 534
423 424
423 425
423 426
423 427
423 428
423 429
423 430
423 431
423 432
423 433
424 425
424 426
424 427
424 428
424 443
424 444
424 445
424 446
425 426
425 427
425 428
425 440
425 465
425 468
425 469
425 470
426 427
426 428
426 478
426 479
426 480
426 481
427 428
427 432
427 476
427 507
427 508
427 509
428 535
428 536
428 537
428 538
428 539
428 540
429 430
429 431
429 432
429 433
429 456
429 457
429 458
429 459
430 431
430 432
430 433
430 439
430 465
430 466
430 467
431 432
431 433
431 497
431 503
431 504
431 505
432 433
432 476
432 507
432 508
432 509
433 535
433 541
433 542
433 543
433 544
433 545
434 435
434 436
434 437
434 438
434 439
434 440
434 441
434 442
435 436
435 437
435 438
435 447
435 448
435 449
435 450
436 437
436 438
436 451
436 460
436 471
436 472
436 473
437 438
437 448
437 452
437 486
437 487
437 488
438 525
438 546
438 547
438 548
438 549
438 550
439 440
439 441
439 442
439 465
439 466
439 467
440 441
440 442
440 465
440 468
440 469
440 470
441 442
441 480
441 494
441 508
441 510
441 512
442 519
442 546
442 551
442 552
442 553
442 554
443 444
443 445
443 446
443 462
443 482
443 483
443 484
443 485
444 445
444 446
444 453
444 466
444 482
444 486
444 489
445 446
445 471
445 478
445 490
445 491
446 526
446 536
446 555
446 556
446 557
446 558
447 448
447 449
447 450
447 451
447 452
447 453
447 454
447 455
448 449
448 450
448 452
448 486
448 487
448 488
449 450
449 468
449 474
449 479
449 490
449 492
450 530
450 547
450 559
450 560
450 561
450 562
451 452
451 453
451 454
451 455
451 460
451 471
451 472
451 473
452 453
452 454
452 455
452 486
452 487
452 488
453 454
453 455
453 466
453 482
453 486
453 489
454 455
454 457
454 472
454 499
454 502
455 559
455 563
455 564
455 565
455 566
455 567
456 457
456 458
456 459
456 493
456 494
456 495
457 458
457 459
457 472
457 499
457 502
458 459
458 469
458 504
458 507
458 510
458 511
459 520
459 541
459 568
459 569
459 570
459 571
460 461
460 462
460 463
460 464
460 471
460 472
460 473
461 462
461 463
461 464
461 474
461 475
461 476
461 477
462 463
462 464
462 482
462 483
462 484
462 485
463 464
463 475
463 487
463 500
463 503
463 506
464 527
464 572
464 573
464 574
464 575
464 576
465 466
465 467
465 468
465 469
465 470
466 467
466 482
466 486
466 489
467 515
467 542
467 551
467 577
467 578
467 579
468 469
468 470
468 474
468 479
468 490
468 492
469 470
469 504
469 507
469 510
469 511
470 537
470 552
470 577
470 580
470 581
470 582
471 472
471 473
471 478
471 490
471 491
472 473
472 499
472 502
473 548
473 563
473 572
473 583
473 584
473 585
474 475
474 476
474 477
474 479
474 490
474 492
475 476
475 477
475 487
475 500
475 503
475 506
476 477
476 507
476 508
476 509
477 531
477 573
477 586
477 587
477 588
477 589
478 479
478 480
478 481
478 490
478 491
479 480
479 481
479 490
479 492
480 481
480 494
480 508
480 510
480 512
481 532
481 538
481 590
481 591
481 592
481 593
482 483
482 484
482 485
482 486
482 489
483 484
483 485
483 493
483 496
483 497
483 498
484 485
484 496
484 499
484 500
484 501
485 555
485 574
485 594
485 595
485 596
485 597
486 487
486 488
486 489
487 488
487 500
487 503
487 506
488 549
488 560
488 564
488 598
488 599
488 600
489 556
489 565
489 578
489 594
489 598
489 601
490 491
490 492
491 516
491 557
491 583
491 590
491 602
491 603
492 561
492 580
492 586
492 591
492 602
492 604
493 494
493 495
493 496
493 497
493 498
494 495
494 508
494 510
494 512
495 521
495 528
495 568
495 605
495 606
495 607
496 497
496 498
496 499
496 500
496 501
497 498
497 503
497 504
497 505
498 522
498 595
498 605
498 608
498 609
498 610
499 500
499 501
499 502
500 501
500 503
500 506
501 523
501 596
501 608
501 611
501 612
501 613
502 517
502 566
502 569
502 584
502 611
502 614
503 504
503 505
503 506
504 505
504 507
504 510
504 511
505 533
505 543
505 609
505 615
505 616
505 617
506 575
506 587
506 599
506 612
506 615
506 618
507 508
507 509
507 510
507 511
508 509
508 510
508 512
509 539
509 544
509 588
509 619
509 620
509 621
510 511
510 512
511 570
511 581
511 616
511 619
511 622
511 623
512 553
512 592
512 606
512 620
512 622
512 624
513 514
513 515
513 516
513 517
513 518
513 525
513 526
513 527
513 528
513 529
514 515
514 516
514 517
514 518
514 530
514 531
514 532
514 533
514 534
515 516
515 517
515 518
515 542
515 551
515 577
515 578
515 579
516 517
516 518
516 557
516 583
516 590
516 602
516 603
517 518
517 566
517 569
517 584
517 611
517 614
518 650
519 520
519 521
519 522
519 523
519 524
519 546
519 551
519 552
519 553
519 554
520 521
520 522
520 523
520 524
520 541
520 568
520 569
520 570
520 571
521 522
521 523
521 524
521 528
521 568
521 605
521 606
521 607
522 523
522 524
522 595
522 605
522 608
522 609
522 610
523 524
523 596
523 608
523 611
523 612
523 613
524 626
525 526
525 527
525 528
525 529
525 546
525 547
525 548
525 549
525 550
526 527
526 528
526 529
526 536
526 555
526 556
526 557
526 558
527 528
527 529
527 572
527 573
527 574
527 575
527 576
528 529
528 568
528 605
528 606
528 607
529 648
530 531
530 532
530 533
530 534
530 547
530 559
530 560
530 561
530 562
531 532
531 533
531 534
531 573
531 586
531 587
531 588
531 589
532 533
532 534
532 538
532 590
532 591
532 592
532 593
533 534
533 543
533 609
533 615
533 616
533 617
534 651
535 536
535 537
535 538
535 539
535 540
535 541
535 542
535 543
535 544
535 545
536 537
536 538
536 539
536 540
536 555
536 556
536 557
536 558
537 538
537 539
537 540
537 552
537 577
537 580
537 581
537 582
538 539
538 540
538 590
538 591
538 592
538 593
539 540
539 544
539 588
539 619
539 620
539 621
540 638
541 542
541 543
541 544
541 545
541 568
541 569
541 570
541 571
542 543
542 544
542 545
542 551
542 577
542 578
542 579
543 544
543 545
543 609
543 615
543 616
543 617
544 545
544 588
544 619
544 620
544 621
545 652
546 547
546 548
546 549
546 550
546 551
546 552
546 553
546 554
547 548
547 549
547 550
547 559
547 560
547 561
547 562
548 549
548 550
548 563
548 572
548 583
548 584
548 585
549 550
549 560
549 564
549 598
549 599
549 600
550 637
551 552
551 553
551 554
551 577
551 578
551 579
552 553
552 554
552 577
552 580
552 581
552 582
553 554
553 592
553 606
553 620
553 622
553 624
554 653
555 556
555 557
555 558
555 574
555 594
555 595
555 596
555 597
556 557
556 558
556 565
556 578
556 594
556 598
556 601
557 558
557 583
557 590
557 602
557 603
558 640
559 560
559 561
559 562
559 563
559 564
559 565
559 566
559 567
560 561
560 562
560 564
560 598
560 599
560 600
561 562
561 580
561 586
561 591
561 602
561 604
562 625
563 564
563 565
563 566
563 567
563 572
563 583
563 584
563 585
564 565
564 566
564 567
564 598
564 599
564 600
565 566
565 567
565 578
565 594
565 598
565 601
566 567
566 569
566 584
566 611
566 614
567 646
568 569
568 570
568 571
568 605
568 606
568 607
569 570
569 571
569 584
569 611
569 614
570 571
570 581
570 616
570 619
570 622
570 623
571 627
572 573
572 574
572 575
572 576
572 583
572 584
572 585
573 574
573 575
573 576
573 586
573 587
573 588
573 589
574 575
574 576
574 594
574 595
574 596
574 597
575 576
575 587
575 599
575 612
575 615
575 618
576 636
577 578
577 579
577 580
577 581
577 582
578 579
578 594
578 598
578 601
579 635
580 581
580 582
580 586
580 591
580 602
580 604
581 582
581 616
581 619
581 622
581 623
582 649
583 584
583 585
583 590
583 602
583 603
584 585
584 611
584 614
585 632
586 587
586 588
586 589
586 591
586 602
586 604
587 588
587 589
587 599
587 612
587 615
587 618
588 589
588 619
588 620
588 621
589 631
590 591
590 592
590 593
590 602
590 603
591 592
591 593
591 602
591 604
592 593
592 606
592 620
592 622
592 624
593 643
594 595
594 596
594 597
594 598
594 601
595 596
595 597
595 605
595 608
595 609
595 610
596 597
596 608
596 611
596 612
596 613
597 630
598 599
598 600
598 601
599 600
599 612
599 615
599 618
600 639
601 655
602 603
602 604
603 628
604 647
605 606
605 607
605 608
605 609
605 610
606 607
606 620
606 622
606 624
607 629
608 609
608 610
608 611
608 612
608 613
609 610
609 615
609 616
609 617
610 644
611 612
611 613
611 614
612 613
612 615
612 618
613 633
614 641
615 616
615 617
615 618
616 617
616 619
616 622
616 623
617 645
618 654
619 620
619 621
619 622
619 623
620 621
620 622
620 624
621 656
622 623
622 624
623 634
624 642
